p edge 29 43
e 1 2
e 1 5
e 1 11
e 1 12
e 1 13
e 1 25
e 2 3
e 2 13
e 2 20
e 2 22
e 2 23
e 3 13
e 3 16
e 3 23
e 4 8
e 4 12
e 4 16
e 6 15
e 6 17
e 6 18
e 7 18
e 7 21
e 7 29
e 8 29
e 9 10
e 9 11
e 9 14
e 9 26
e 10 21
e 11 12
e 11 25
e 12 15
e 14 24
e 15 16
e 15 17
e 15 27
e 16 22
e 17 24
e 18 19
e 18 20
e 19 20
e 20 28
e 24 27
